NAME : eil51.664583.tour
COMMENT : Cost = 112072_664583
COMMENT : Found by LKH [Keld Helsgaun] Thu Jan 19 22:26:19 2017
TYPE : TOUR
DIMENSION : 57
TOUR_SECTION
1
2
29
21
34
30
39
10
49
9
50
16
57
40
53
27
54
8
26
31
28
3
36
35
20
22
52
13
41
19
42
4
47
51
56
48
23
7
43
24
14
25
18
6
55
46
12
17
37
44
15
45
33
5
38
11
32
-1
EOF
